1 1 -2 0
1 -1 -3 0
1 1 -4 0
1 1 -5 0
1 -2 6 0
1 2 3 0
1 -2 5 0
1 -7 -8 0
1 -7 3 0
1 -7 5 0
1 -9 10 0
1 -9 -11 0
1 9 12 0
1 -3 13 0
1 3 -14 0
1 3 -2 0
1 3 -15 0
1 3 -7 0
1 5 -13 0
1 -5 16 0
1 -8 -17 0
1 -8 9 0
1 -8 -18 0
1 8 7 0
1 -12 2 0
1 12 8 0
1 -12 -18 0
1 -16 -11 0
1 -16 5 0
1 -14 -19 0
1 -14 -10 0
1 14 -17 0
1 15 -20 0
1 -13 10 0
1 -13 -3 0
1 -13 -5 0
1 -11 -14 0
1 10 -21 0
1 -10 14 0
1 -10 -11 0
1 10 -16 0
1 -22 23 0
1 22 24 0
1 22 25 0
1 -19 23 0
1 19 -13 0
1 19 -14 0
1 19 -25 0
1 19 15 0
1 -19 7 0
1 -26 21 0
1 -26 -27 0
1 -26 -28 0
1 21 26 0
1 29 -30 0
1 -29 10 0
1 -30 10 0
1 31 29 0
1 31 15 0
1 28 13 0
1 28 32 0
1 28 -31 0
1 20 -33 0
1 -20 15 0
1 27 -13 0
1 27 -34 0
1 -27 -32 0
1 27 -26 0
1 27 35 0
1 -27 -36 0
1 4 -37 0
1 -6 -37 0
1 6 38 0
1 6 -2 0
1 6 39 0
1 6 40 0
1 41 -40 0
1 42 -43 0
1 -38 -44 0
1 38 17 0
1 -38 -40 0
1 38 45 0
1 40 42 0
1 -40 45 0
1 40 -41 0
1 40 4 0
1 37 -46 0
1 37 47 0
1 -37 6 0
1 -39 46 0
1 39 42 0
1 45 38 0
1 -45 48 0
1 45 -49 0
1 -45 -8 0
1 45 -16 0
1 -17 -38 0
1 17 49 0
1 17 -40 0
1 -17 -50 0
1 18 -38 0
1 18 51 0
1 18 52 0
1 18 -8 0
1 -18 -40 0
1 -18 43 0
1 18 53 0
1 -54 48 0
1 -54 -46 0
1 54 -40 0
1 49 55 0
1 49 54 0
1 -49 17 0
1 -49 -42 0
1 49 -56 0
1 -49 -18 0
1 -49 -41 0
1 50 55 0
1 50 49 0
1 -50 -57 0
1 -50 -45 0
1 -48 -58 0
1 48 -43 0
1 48 -59 0
1 -48 -45 0
1 -43 -60 0
1 43 -44 0
1 43 -18 0
1 -43 45 0
1 -25 -19 0
1 -25 -51 0
1 25 -3 0
1 -23 -21 0
1 -23 -3 0
1 -56 -49 0
1 56 61 0
1 -56 22 0
1 -56 -62 0
1 -63 52 0
1 -63 -64 0
1 -63 22 0
1 63 -53 0
1 -63 65 0
1 -52 63 0
1 52 -66 0
1 -62 54 0
1 -62 67 0
1 -62 -56 0
1 62 -18 0
1 -62 -35 0
1 62 36 0
1 -51 68 0
1 -51 67 0
1 51 69 0
1 -51 -56 0
1 -51 -70 0
1 51 -71 0
1 53 -51 0
1 53 25 0
1 53 18 0
1 -53 71 0
1 -66 52 0
1 -66 61 0
1 -66 -62 0
1 -36 -19 0
1 -36 10 0
1 -36 61 0
1 36 -22 0
1 -36 -11 0
1 -36 -62 0
1 36 65 0
1 -33 -72 0
1 33 -73 0
1 -33 64 0
1 -33 -20 0
1 -35 -74 0
1 35 72 0
1 35 33 0
1 35 75 0
1 -35 -65 0
1 -64 56 0
1 64 -36 0
1 74 76 0
1 -74 32 0
1 -74 33 0
1 -74 56 0
1 74 77 0
1 -74 -78 0
1 -61 63 0
1 61 -67 0
1 -61 -33 0
1 61 -8 0
1 -61 79 0
1 61 70 0
1 61 35 0
1 -65 63 0
1 -65 80 0
1 65 -66 0
1 65 12 0
1 65 81 0
1 65 -35 0
1 32 74 0
1 -32 -28 0
1 -32 -64 0
1 32 -75 0
1 -32 78 0
1 78 -27 0
1 78 32 0
1 78 20 0
1 -82 83 0
1 -82 80 0
1 82 64 0
1 -82 84 0
1 -77 73 0
1 77 -84 0
1 77 -85 0
1 -75 -86 0
1 -73 -87 0
1 73 82 0
1 73 88 0
1 -73 -75 0
1 73 89 0
1 -24 87 0
1 -24 76 0
1 24 90 0
1 -24 78 0
1 72 76 0
1 -72 -88 0
1 -72 -24 0
1 91 -73 0
1 91 -84 0
1 91 -89 0
1 -89 -34 0
1 89 -91 0
1 -89 -75 0
1 89 92 0
1 -86 -73 0
1 93 -86 0
1 -93 94 0
1 -92 -95 0
1 92 77 0
1 -83 -28 0
1 83 -77 0
1 -84 96 0
1 -84 -34 0
1 84 82 0
1 -84 -89 0
1 -34 87 0
1 34 -86 0
1 -34 97 0
1 -34 -91 0
1 -34 -82 0
1 34 -98 0
1 -34 -84 0
1 34 88 0
1 99 -100 0
1 99 101 0
1 102 103 0
1 -102 -104 0
1 102 6 0
1 102 -105 0
1 106 107 0
1 106 -108 0
1 -109 -103 0
1 109 -110 0
1 109 -107 0
1 -109 111 0
1 109 100 0
1 -109 108 0
1 109 106 0
1 104 -102 0
1 105 112 0
1 105 -103 0
1 -105 113 0
1 -105 109 0
1 -105 102 0
1 -105 114 0
1 -105 99 0
1 -103 -109 0
1 103 99 0
1 115 -100 0
1 -115 116 0
1 -115 -117 0
1 47 -104 0
1 -47 110 0
1 47 117 0
1 -118 37 0
1 -118 -46 0
1 -118 -39 0
1 118 114 0
1 118 -119 0
1 46 -37 0
1 46 -110 0
1 46 -39 0
1 46 -108 0
1 -117 47 0
1 -117 -59 0
1 117 118 0
1 117 115 0
1 -117 120 0
1 107 -60 0
1 107 44 0
1 -107 -46 0
1 -107 109 0
1 -107 -59 0
1 107 117 0
1 108 -121 0
1 -108 -109 0
1 108 115 0
1 -110 122 0
1 110 -46 0
1 110 123 0
1 59 124 0
1 -59 38 0
1 -59 -125 0
1 59 -39 0
1 -59 -40 0
1 -59 43 0
1 59 123 0
1 59 -119 0
1 -44 37 0
1 44 -38 0
1 -44 -39 0
1 44 117 0
1 44 -119 0
1 -58 60 0
1 -58 126 0
1 -58 -127 0
1 -58 48 0
1 -58 128 0
1 58 -56 0
1 58 -119 0
1 60 -124 0
1 60 -129 0
1 -60 -58 0
1 -124 -44 0
1 124 46 0
1 -124 -118 0
1 125 -59 0
1 125 -71 0
1 -119 60 0
1 119 -130 0
1 -119 46 0
1 -119 -128 0
1 119 58 0
1 128 121 0
1 128 -46 0
1 128 -131 0
1 128 132 0
1 128 58 0
1 -69 -55 0
1 -69 -126 0
1 -69 -48 0
1 69 49 0
1 69 -133 0
1 -69 -50 0
1 69 53 0
1 -55 51 0
1 55 125 0
1 134 127 0
1 -134 129 0
1 134 135 0
1 -134 53 0
1 71 134 0
1 71 -129 0
1 -71 135 0
1 71 57 0
1 -71 -35 0
1 -127 58 0
1 136 55 0
1 136 -137 0
1 136 -40 0
1 136 70 0
1 -136 -71 0
1 -126 -55 0
1 126 -60 0
1 -126 -138 0
1 126 -139 0
1 126 -134 0
1 -126 140 0
1 -129 -126 0
1 129 58 0
1 129 -141 0
1 67 142 0
1 67 -57 0
1 -67 53 0
1 -70 67 0
1 70 135 0
1 -70 -78 0
1 70 143 0
1 70 65 0
1 -80 144 0
1 80 61 0
1 80 135 0
1 -80 85 0
1 -85 -127 0
1 85 61 0
1 85 57 0
1 142 67 0
1 -142 -94 0
1 -142 -81 0
1 142 -70 0
1 142 71 0
1 -57 145 0
1 57 80 0
1 57 67 0
1 -57 134 0
1 57 146 0
1 -57 50 0
1 -57 -71 0
1 147 -145 0
1 -147 -48 0
1 -147 -137 0
1 147 134 0
1 147 -146 0
1 147 135 0
1 -147 -148 0
1 147 -70 0
1 -135 -149 0
1 135 -137 0
1 135 -67 0
1 135 140 0
1 -76 72 0
1 -76 -91 0
1 76 137 0
1 -76 150 0
1 76 64 0
1 -76 -24 0
1 -76 -144 0
1 -81 68 0
1 -81 -24 0
1 81 89 0
1 81 -144 0
1 151 -86 0
1 -151 -149 0
1 -151 142 0
1 151 144 0
1 -94 142 0
1 94 148 0
1 -94 -152 0
1 -150 151 0
1 -150 -76 0
1 -150 153 0
1 150 88 0
1 150 94 0
1 154 96 0
1 -154 151 0
1 -154 80 0
1 -154 88 0
1 68 145 0
1 68 80 0
1 -68 -153 0
1 -68 -155 0
1 68 -146 0
1 -144 -80 0
1 -144 -94 0
1 144 81 0
1 -87 72 0
1 -87 -145 0
1 -87 75 0
1 -88 -34 0
1 -88 150 0
1 -88 -75 0
1 88 84 0
1 156 157 0
1 156 -150 0
1 156 155 0
1 -156 158 0
1 -156 -154 0
1 -159 -151 0
1 -159 160 0
1 -159 161 0
1 159 -64 0
1 159 -162 0
1 163 -156 0
1 -163 164 0
1 -79 -96 0
1 -79 -160 0
1 -79 165 0
1 79 61 0
1 -152 -166 0
1 152 160 0
1 152 -164 0
1 -95 -167 0
1 -95 -34 0
1 -95 -83 0
1 95 -92 0
1 -98 95 0
1 162 -167 0
1 162 -97 0
1 -162 -161 0
1 161 -157 0
1 161 -159 0
1 -161 -90 0
1 158 95 0
1 -158 -157 0
1 158 168 0
1 157 -161 0
1 -157 -98 0
1 -157 -169 0
1 -90 -167 0
1 -90 -161 0
1 -90 -156 0
1 90 24 0
1 90 164 0
1 167 -72 0
1 -167 -170 0
1 -167 -161 0
1 167 98 0
1 167 -156 0
1 -167 -90 0
1 -167 162 0
1 -169 -171 0
1 169 172 0
1 -171 -160 0
1 -171 -158 0
1 -171 172 0
1 -173 -97 0
1 173 -174 0
1 175 -157 0
1 175 -176 0
1 175 -177 0
1 175 -173 0
1 -172 -169 0
1 -176 83 0
1 -178 175 0
1 178 161 0
1 -178 -84 0
1 97 -179 0
1 97 -175 0
1 97 171 0
1 97 180 0
1 97 181 0
1 97 168 0
1 -101 182 0
1 182 -183 0
1 184 -185 0
1 184 -186 0
1 184 -187 0
1 -184 -188 0
1 -111 -186 0
1 -111 184 0
1 -185 189 0
1 185 190 0
1 186 -191 0
1 186 -190 0
1 -186 192 0
1 183 -193 0
1 -183 194 0
1 183 195 0
1 195 183 0
1 195 196 0
1 195 -197 0
1 195 101 0
1 116 -198 0
1 -116 -199 0
1 116 115 0
1 116 -186 0
1 -116 200 0
1 116 188 0
1 -191 47 0
1 -191 201 0
1 -191 -199 0
1 191 187 0
1 114 202 0
1 114 103 0
1 -114 -113 0
1 -114 199 0
1 114 203 0
1 -114 -204 0
1 114 -188 0
1 -113 198 0
1 -113 114 0
1 113 186 0
1 113 188 0
1 199 -122 0
1 199 -205 0
1 -188 206 0
1 -188 199 0
1 -188 -207 0
1 188 123 0
1 188 116 0
1 198 -208 0
1 -198 -187 0
1 -198 -191 0
1 198 209 0
1 -187 210 0
1 187 193 0
1 -187 198 0
1 187 116 0
1 187 184 0
1 -187 211 0
1 -123 202 0
1 -206 -203 0
1 206 204 0
1 206 -105 0
1 206 108 0
1 -206 -188 0
1 205 -110 0
1 205 58 0
1 205 -188 0
1 122 212 0
1 -122 -110 0
1 -122 199 0
1 -122 -203 0
1 122 -112 0
1 -204 206 0
1 -204 133 0
1 -204 205 0
1 204 -114 0
1 -202 -206 0
1 -202 -113 0
1 -202 133 0
1 -203 -213 0
1 -203 205 0
1 214 -213 0
1 214 122 0
1 -214 215 0
1 214 203 0
1 214 205 0
1 214 -114 0
1 133 -207 0
1 -133 204 0
1 121 -208 0
1 -121 202 0
1 121 212 0
1 -121 107 0
1 121 -128 0
1 -121 -117 0
1 132 216 0
1 132 -217 0
1 -132 -218 0
1 -132 -219 0
1 132 -220 0
1 -221 -213 0
1 -221 222 0
1 221 -120 0
1 -222 -216 0
1 -222 -139 0
1 222 -223 0
1 222 -132 0
1 222 -100 0
1 -222 224 0
1 -216 -122 0
1 -216 104 0
1 216 -132 0
1 -216 133 0
1 216 205 0
1 -216 222 0
1 -216 141 0
1 216 -143 0
1 112 -122 0
1 -112 215 0
1 112 225 0
1 112 226 0
1 212 -227 0
1 212 228 0
1 -212 132 0
1 212 205 0
1 212 229 0
1 212 -221 0
1 -223 -129 0
1 -143 124 0
1 143 217 0
1 143 223 0
1 143 -125 0
1 139 131 0
1 -139 -222 0
1 -141 -230 0
1 141 -139 0
1 -141 -220 0
1 141 -229 0
1 -141 120 0
1 120 -137 0
1 -120 218 0
1 -120 -223 0
1 -120 -143 0
1 -218 -149 0
1 -218 120 0
1 220 -217 0
1 -220 -108 0
1 220 132 0
1 -220 -141 0
1 217 -132 0
1 217 220 0
1 -217 224 0
1 -217 -141 0
1 -137 126 0
1 -137 131 0
1 137 -231 0
1 137 -136 0
1 -137 -140 0
1 140 230 0
1 140 147 0
1 -140 -137 0
1 140 -231 0
1 140 224 0
1 140 120 0
1 -140 130 0
1 -149 230 0
1 149 -147 0
1 -149 -218 0
1 149 231 0
1 -149 -135 0
1 -149 -120 0
1 148 -218 0
1 148 -131 0
1 148 231 0
1 -148 -120 0
1 -148 -130 0
1 -230 -124 0
1 -230 -232 0
1 -230 -233 0
1 -230 -149 0
1 -230 -231 0
1 -230 -234 0
1 -231 -149 0
1 -231 -137 0
1 -231 234 0
1 -231 148 0
1 -231 -140 0
1 -130 -235 0
1 130 149 0
1 130 234 0
1 130 236 0
1 131 -232 0
1 -131 -237 0
1 -131 -149 0
1 131 238 0
1 -131 -234 0
1 131 236 0
1 131 -239 0
1 -145 230 0
1 145 -138 0
1 -145 231 0
1 -146 145 0
1 -146 -231 0
1 146 88 0
1 146 135 0
1 146 240 0
1 -146 144 0
1 -241 -242 0
1 241 -240 0
1 241 -243 0
1 -155 -230 0
1 155 -138 0
1 155 -244 0
1 155 -245 0
1 -244 -241 0
1 244 -155 0
1 244 -148 0
1 240 246 0
1 -240 -241 0
1 240 -244 0
1 240 -153 0
1 240 136 0
1 -240 247 0
1 -138 248 0
1 138 241 0
1 138 -249 0
1 -138 -149 0
1 -138 155 0
1 -138 146 0
1 138 148 0
1 250 234 0
1 -250 -129 0
1 250 -251 0
1 -246 242 0
1 -246 150 0
1 246 79 0
1 -246 152 0
1 153 -242 0
1 -153 -234 0
1 153 252 0
1 153 243 0
1 153 -144 0
1 -153 152 0
1 253 -244 0
1 -253 -254 0
1 253 252 0
1 -253 255 0
1 253 -256 0
1 -165 -244 0
1 -165 -245 0
1 165 -242 0
1 -165 -254 0
1 165 161 0
1 165 257 0
1 165 -79 0
1 -165 -243 0
1 165 -255 0
1 -242 258 0
1 -243 -242 0
1 -243 -165 0
1 -243 -253 0
1 -245 147 0
1 -245 -165 0
1 245 -259 0
1 252 260 0
1 -252 -135 0
1 252 -261 0
1 -252 253 0
1 164 242 0
1 164 -254 0
1 164 90 0
1 -160 -254 0
1 160 152 0
1 -174 177 0
1 174 -242 0
1 -174 -257 0
1 174 256 0
1 177 255 0
1 -177 -262 0
1 257 -150 0
1 -256 263 0
1 -256 -170 0
1 256 257 0
1 -256 168 0
1 -256 174 0
1 -256 264 0
1 254 -177 0
1 -254 -165 0
1 254 -265 0
1 254 266 0
1 254 259 0
1 -254 -174 0
1 -255 -267 0
1 255 -268 0
1 -255 260 0
1 -255 -254 0
1 255 -253 0
1 168 -170 0
1 -170 167 0
1 -170 -157 0
1 -170 178 0
1 -181 -256 0
1 -263 97 0
1 263 269 0
1 -263 178 0
1 -270 -170 0
1 270 177 0
1 270 271 0
1 -270 -181 0
1 270 -168 0
1 -272 -273 0
1 272 -263 0
1 272 170 0
1 272 271 0
1 -272 -180 0
1 -262 -79 0
1 -262 274 0
1 262 275 0
1 262 -168 0
1 -166 276 0
1 -166 -277 0
1 166 -267 0
1 166 -263 0
1 -166 -274 0
1 166 -262 0
1 -166 278 0
1 -166 181 0
1 166 174 0
1 -166 -152 0
1 -180 -272 0
1 180 279 0
1 -179 -280 0
1 179 -97 0
1 179 -176 0
1 179 -180 0
1 271 -280 0
1 271 -281 0
1 -273 277 0
1 -273 272 0
1 273 -280 0
1 -273 -281 0
1 -273 -282 0
1 -281 263 0
1 281 283 0
1 281 -284 0
1 -280 157 0
1 280 -285 0
1 -280 271 0
1 280 -180 0
1 280 -281 0
1 280 -286 0
1 269 179 0
1 -269 -90 0
1 -269 181 0
1 -269 287 0
1 269 288 0
1 -279 179 0
1 -279 -167 0
1 -279 289 0
1 279 180 0
1 284 290 0
1 291 280 0
1 -282 -273 0
1 -282 -292 0
1 292 -290 0
1 -292 271 0
1 -292 293 0
1 -292 282 0
1 -294 283 0
1 -294 271 0
1 -294 -293 0
1 -295 97 0
1 -295 296 0
1 295 -291 0
1 295 -290 0
1 -295 -294 0
1 -297 298 0
1 297 299 0
1 300 301 0
1 300 182 0
1 302 303 0
1 -302 304 0
1 305 -306 0
1 298 307 0
1 -298 -194 0
1 298 305 0
1 -298 302 0
1 -299 298 0
1 299 300 0
1 -299 308 0
1 309 -297 0
1 301 305 0
1 200 -201 0
1 -200 195 0
1 200 -116 0
1 -201 310 0
1 -201 183 0
1 -201 -303 0
1 201 304 0
1 201 -200 0
1 -197 306 0
1 197 311 0
1 -197 -194 0
1 197 195 0
1 197 312 0
1 -194 183 0
1 194 304 0
1 -194 -195 0
1 310 313 0
1 -310 314 0
1 -310 201 0
1 310 200 0
1 304 -210 0
1 304 -193 0
1 304 315 0
1 -304 -200 0
1 -304 -302 0
1 -306 -303 0
1 306 -316 0
1 303 313 0
1 303 -317 0
1 190 310 0
1 -190 -318 0
1 -190 -185 0
1 -190 -304 0
1 193 185 0
1 -193 -198 0
1 -193 312 0
1 193 319 0
1 -193 -190 0
1 -193 -195 0
1 193 186 0
1 193 187 0
1 -320 -310 0
1 -210 310 0
1 210 -311 0
1 -210 189 0
1 210 320 0
1 210 196 0
1 210 -187 0
1 311 -219 0
1 -311 190 0
1 -311 197 0
1 311 -321 0
1 -319 208 0
1 319 -210 0
1 -319 -320 0
1 -319 -197 0
1 -318 210 0
1 318 320 0
1 -318 321 0
1 312 318 0
1 -312 194 0
1 -312 -322 0
1 -207 -214 0
1 -207 133 0
1 207 319 0
1 -207 -187 0
1 -208 -214 0
1 208 311 0
1 208 189 0
1 208 -203 0
1 208 -319 0
1 -219 209 0
1 219 -322 0
1 219 -192 0
1 -213 323 0
1 -213 214 0
1 -213 219 0
1 -213 -203 0
1 213 -211 0
1 213 221 0
1 -189 -210 0
1 -189 -324 0
1 -189 207 0
1 -189 320 0
1 189 229 0
1 189 192 0
1 192 215 0
1 192 -219 0
1 192 320 0
1 192 -186 0
1 325 -208 0
1 -325 -320 0
1 -196 213 0
1 -196 208 0
1 -196 -325 0
1 196 -326 0
1 -196 -320 0
1 196 195 0
1 -215 -189 0
1 215 327 0
1 -226 328 0
1 -226 -202 0
1 -226 189 0
1 -226 329 0
1 226 -203 0
1 226 112 0
1 226 -211 0
1 -226 321 0
1 -228 330 0
1 228 -331 0
1 228 -212 0
1 228 -189 0
1 -228 329 0
1 228 332 0
1 229 -209 0
1 229 -211 0
1 329 333 0
1 329 -334 0
1 329 335 0
1 329 -228 0
1 329 -336 0
1 329 337 0
1 329 224 0
1 329 229 0
1 -328 338 0
1 328 335 0
1 209 -228 0
1 209 215 0
1 211 333 0
1 211 228 0
1 211 -215 0
1 211 -337 0
1 211 -339 0
1 -335 330 0
1 -335 -331 0
1 -335 217 0
1 -335 340 0
1 -335 -112 0
1 335 224 0
1 224 330 0
1 224 331 0
1 -224 212 0
1 224 340 0
1 -334 -330 0
1 -334 -341 0
1 334 329 0
1 334 -220 0
1 342 -331 0
1 -342 227 0
1 -342 341 0
1 -342 340 0
1 342 332 0
1 -342 -225 0
1 -342 -220 0
1 332 -331 0
1 -332 -334 0
1 -332 -239 0
1 331 -342 0
1 331 -224 0
1 331 229 0
1 340 -333 0
1 -340 -343 0
1 -340 337 0
1 340 342 0
1 -330 214 0
1 330 -344 0
1 -330 -345 0
1 330 -333 0
1 -330 -334 0
1 330 229 0
1 -235 -145 0
1 -235 333 0
1 -235 -227 0
1 -235 -346 0
1 235 220 0
1 235 -130 0
1 239 341 0
1 -239 -217 0
1 237 -347 0
1 237 -225 0
1 -237 130 0
1 -236 237 0
1 -236 341 0
1 -236 348 0
1 -236 -131 0
1 236 155 0
1 -236 349 0
1 236 225 0
1 -236 130 0
1 -346 350 0
1 -346 -234 0
1 -346 351 0
1 341 -248 0
1 341 232 0
1 341 -235 0
1 -341 -334 0
1 -341 352 0
1 -341 350 0
1 -341 -353 0
1 -341 -346 0
1 225 344 0
1 -225 -112 0
1 -225 -351 0
1 227 -354 0
1 -227 -344 0
1 -227 -237 0
1 -227 355 0
1 227 350 0
1 227 -342 0
1 -232 -138 0
1 232 -347 0
1 232 231 0
1 -232 -356 0
1 232 357 0
1 -232 -130 0
1 234 230 0
1 234 -232 0
1 234 -131 0
1 234 -358 0
1 -234 -356 0
1 234 -357 0
1 248 -233 0
1 -248 -347 0
1 -248 250 0
1 -353 359 0
1 -353 -165 0
1 353 -346 0
1 357 -232 0
1 -357 -360 0
1 -357 -348 0
1 -357 -236 0
1 -357 261 0
1 -357 -120 0
1 -348 -232 0
1 348 361 0
1 348 -357 0
1 -356 362 0
1 347 -237 0
1 -347 -362 0
1 -363 -233 0
1 363 -244 0
1 363 160 0
1 363 364 0
1 363 240 0
1 -363 357 0
1 261 -364 0
1 261 -357 0
1 -360 -348 0
1 -360 238 0
1 233 248 0
1 233 363 0
1 233 -353 0
1 -364 233 0
1 -364 -365 0
1 364 266 0
1 359 366 0
1 359 -353 0
1 238 367 0
1 238 -368 0
1 238 363 0
1 238 353 0
1 259 -369 0
1 -259 260 0
1 259 -242 0
1 -259 254 0
1 259 -364 0
1 259 -251 0
1 -259 247 0
1 260 -233 0
1 260 245 0
1 260 370 0
1 260 -369 0
1 -260 -254 0
1 260 -364 0
1 260 251 0
1 266 -249 0
1 -266 -268 0
1 -266 369 0
1 -266 -254 0
1 266 -247 0
1 -266 -255 0
1 -268 -263 0
1 -268 -364 0
1 -268 -247 0
1 -268 266 0
1 -268 371 0
1 369 277 0
1 -369 -260 0
1 -369 360 0
1 369 278 0
1 247 -277 0
1 -247 369 0
1 -247 -260 0
1 -247 -266 0
1 247 261 0
1 249 138 0
1 -249 -268 0
1 -249 372 0
1 -249 266 0
1 -251 -373 0
1 251 367 0
1 251 360 0
1 -251 -259 0
1 265 -166 0
1 -265 -258 0
1 265 -257 0
1 -265 371 0
1 -265 -256 0
1 267 179 0
1 267 -369 0
1 267 254 0
1 267 -262 0
1 -267 -247 0
1 267 255 0
1 278 -374 0
1 -278 375 0
1 -278 376 0
1 278 264 0
1 277 373 0
1 277 -278 0
1 277 -371 0
1 -277 -264 0
1 -258 277 0
1 -258 268 0
1 258 242 0
1 -258 -377 0
1 -258 -274 0
1 -258 -265 0
1 258 266 0
1 378 -379 0
1 378 277 0
1 378 268 0
1 378 -258 0
1 -378 -278 0
1 378 -265 0
1 -378 380 0
1 -378 -381 0
1 374 -267 0
1 374 -382 0
1 371 278 0
1 371 383 0
1 371 -252 0
1 274 379 0
1 274 -166 0
1 274 -279 0
1 -274 -258 0
1 -274 -384 0
1 274 -290 0
1 274 -262 0
1 274 378 0
1 -274 264 0
1 379 166 0
1 -379 279 0
1 -379 384 0
1 379 269 0
1 -379 378 0
1 -379 -264 0
1 -385 -276 0
1 385 -279 0
1 385 384 0
1 385 275 0
1 385 269 0
1 -288 -279 0
1 -288 -386 0
1 -288 286 0
1 288 -264 0
1 384 283 0
1 -384 264 0
1 -264 387 0
1 -264 -274 0
1 -264 288 0
1 388 389 0
1 388 375 0
1 388 390 0
1 -283 -276 0
1 -283 -391 0
1 283 386 0
1 283 -287 0
1 283 -264 0
1 -287 384 0
1 287 275 0
1 -287 386 0
1 296 276 0
1 296 -295 0
1 296 -384 0
1 -296 275 0
1 -296 -392 0
1 -392 -289 0
1 392 295 0
1 -392 -296 0
1 392 -393 0
1 -386 -394 0
1 -386 395 0
1 -391 394 0
1 -391 -396 0
1 -391 -385 0
1 391 -397 0
1 -275 276 0
1 275 -398 0
1 275 296 0
1 275 283 0
1 275 385 0
1 -275 395 0
1 275 -288 0
1 -276 166 0
1 -276 398 0
1 -276 283 0
1 276 -399 0
1 396 -391 0
1 396 -292 0
1 396 400 0
1 -396 294 0
1 293 285 0
1 293 -294 0
1 -293 282 0
1 401 -391 0
1 -401 289 0
1 -401 402 0
1 401 -386 0
1 -401 403 0
1 -397 -289 0
1 397 -285 0
1 -397 404 0
1 397 403 0
1 -285 -396 0
1 285 -397 0
1 -400 396 0
1 289 -401 0
1 289 -396 0
1 -289 296 0
1 405 -402 0
1 -406 285 0
1 -406 403 0
1 407 -402 0
1 -407 403 0
1 408 402 0
1 403 407 0
1 -403 -402 0
1 402 407 0
1 409 405 0
1 409 -397 0
1 -410 405 0
1 410 295 0
1 410 -409 0
1 316 -306 0
1 316 -313 0
1 -316 310 0
1 -316 318 0
1 316 -308 0
1 -316 312 0
1 -316 411 0
1 313 -307 0
1 313 -306 0
1 -313 412 0
1 313 -303 0
1 -322 -413 0
1 -322 -314 0
1 322 -412 0
1 -322 -317 0
1 -322 312 0
1 -323 -318 0
1 -323 -308 0
1 323 -322 0
1 323 -315 0
1 307 -298 0
1 307 -323 0
1 307 414 0
1 308 322 0
1 -411 -323 0
1 411 313 0
1 411 412 0
1 -411 322 0
1 412 -301 0
1 412 -411 0
1 327 413 0
1 -327 215 0
1 -327 -308 0
1 327 196 0
1 -321 413 0
1 321 -314 0
1 321 -311 0
1 321 325 0
1 321 315 0
1 -321 -312 0
1 321 -196 0
1 414 -307 0
1 -414 -413 0
1 414 -415 0
1 -414 -196 0
1 -416 314 0
1 -416 -414 0
1 416 196 0
1 -314 -417 0
1 -314 418 0
1 -314 -414 0
1 314 -321 0
1 315 417 0
1 -315 -322 0
1 315 -419 0
1 -315 -321 0
1 -413 306 0
1 413 -420 0
1 -413 327 0
1 -413 -321 0
1 -317 413 0
1 317 327 0
1 -317 -322 0
1 -317 -419 0
1 -418 -421 0
1 -418 325 0
1 418 315 0
1 418 196 0
1 -339 422 0
1 -339 -325 0
1 339 -189 0
1 -339 -209 0
1 339 -315 0
1 339 415 0
1 339 224 0
1 339 211 0
1 417 314 0
1 -417 -334 0
1 417 415 0
1 423 422 0
1 -423 424 0
1 -423 324 0
1 -423 -209 0
1 -423 315 0
1 423 342 0
1 -423 326 0
1 -422 -425 0
1 422 -345 0
1 422 -311 0
1 -422 -337 0
1 422 415 0
1 -422 -339 0
1 415 -349 0
1 -415 339 0
1 -421 -426 0
1 421 -318 0
1 421 -427 0
1 421 -428 0
1 421 -419 0
1 421 -339 0
1 421 -416 0
1 429 -417 0
1 -429 430 0
1 429 419 0
1 429 -423 0
1 429 339 0
1 333 424 0
1 333 -209 0
1 333 -337 0
1 -337 -333 0
1 -337 424 0
1 337 -340 0
1 337 239 0
1 337 326 0
1 -345 -237 0
1 -345 431 0
1 345 -336 0
1 -345 415 0
1 349 -236 0
1 349 415 0
1 -349 326 0
1 -349 432 0
1 -324 344 0
1 -324 -189 0
1 -324 -433 0
1 -324 434 0
1 -434 -417 0
1 434 -192 0
1 -424 333 0
1 -424 -417 0
1 424 -433 0
1 -424 435 0
1 424 -349 0
1 424 -423 0
1 -326 417 0
1 326 -436 0
1 -326 -349 0
1 -326 337 0
1 344 -338 0
1 344 -232 0
1 -344 331 0
1 -344 227 0
1 344 324 0
1 344 431 0
1 -344 332 0
1 358 338 0
1 358 -344 0
1 358 -331 0
1 -358 -234 0
1 358 -432 0
1 354 338 0
1 354 -437 0
1 -354 -438 0
1 -354 -439 0
1 354 225 0
1 439 338 0
1 439 -438 0
1 439 440 0
1 336 -354 0
1 336 -350 0
1 336 439 0
1 -336 329 0
1 -336 -441 0
1 338 -336 0
1 338 -442 0
1 -338 -351 0
1 -431 -345 0
1 431 -443 0
1 -431 -432 0
1 -432 211 0
1 432 -443 0
1 -432 -444 0
1 -432 439 0
1 -432 -349 0
1 432 -442 0
1 351 338 0
1 351 -438 0
1 -351 -347 0
1 351 -350 0
1 351 336 0
1 -351 440 0
1 -351 346 0
1 -350 -338 0
1 -350 -225 0
1 -362 445 0
1 362 355 0
1 362 446 0
1 447 338 0
1 -447 -440 0
1 -447 356 0
1 -447 -362 0
1 440 448 0
1 440 368 0
1 440 -447 0
1 440 332 0
1 440 449 0
1 438 -331 0
1 438 -368 0
1 -438 -351 0
1 -343 450 0
1 343 -350 0
1 343 439 0
1 343 451 0
1 343 449 0
1 343 -442 0
1 -437 452 0
1 -437 350 0
1 437 -439 0
1 -437 -362 0
1 -361 453 0
1 361 -259 0
1 370 -359 0
1 -370 348 0
1 -370 446 0
1 -370 -361 0
1 -370 -356 0
1 454 446 0
1 -454 455 0
1 -454 456 0
1 -454 440 0
1 454 -266 0
1 454 -453 0
1 368 438 0
1 368 -355 0
1 368 -455 0
1 -368 456 0
1 368 440 0
1 -368 -453 0
1 453 -373 0
1 453 368 0
1 -453 -447 0
1 453 346 0
1 -453 -457 0
1 -352 367 0
1 352 454 0
1 -352 -453 0
1 -352 -362 0
1 -446 -458 0
1 446 450 0
1 355 -368 0
1 355 227 0
1 -355 -459 0
1 -355 449 0
1 365 -249 0
1 -365 -251 0
1 365 449 0
1 365 453 0
1 365 460 0
1 -365 461 0
1 367 450 0
1 367 -352 0
1 -367 -238 0
1 -367 -251 0
1 -376 249 0
1 376 -278 0
1 -376 462 0
1 -373 463 0
1 373 458 0
1 373 455 0
1 461 -373 0
1 461 376 0
1 -461 464 0
1 -461 -357 0
1 -456 -373 0
1 -456 367 0
1 456 -461 0
1 -456 -465 0
1 456 -382 0
1 460 459 0
1 -460 -464 0
1 455 -367 0
1 -455 368 0
1 455 -466 0
1 -455 -460 0
1 455 365 0
1 455 -454 0
1 -455 -464 0
1 467 -369 0
1 -467 -468 0
1 467 459 0
1 -467 -371 0
1 469 379 0
1 -469 -366 0
1 -469 -249 0
1 -469 -468 0
1 382 366 0
1 382 -372 0
1 -382 -461 0
1 -382 -468 0
1 382 -470 0
1 382 -471 0
1 -472 366 0
1 -472 372 0
1 472 -473 0
1 472 471 0
1 -472 288 0
1 -463 474 0
1 -463 382 0
1 -463 -393 0
1 -475 -474 0
1 475 377 0
1 -475 -467 0
1 -475 -476 0
1 -475 -381 0
1 475 -472 0
1 -366 359 0
1 -366 -373 0
1 -366 474 0
1 -366 -376 0
1 -468 -467 0
1 468 376 0
1 468 464 0
1 468 472 0
1 377 -473 0
1 -377 -375 0
1 377 477 0
1 -377 -475 0
1 -377 -378 0
1 381 463 0
1 381 372 0
1 -381 -374 0
1 381 -377 0
1 -381 -378 0
1 -381 -464 0
1 -389 478 0
1 389 479 0
1 -389 -393 0
1 -389 -388 0
1 393 473 0
1 393 380 0
1 -393 -471 0
1 393 -392 0
1 393 -480 0
1 -473 -481 0
1 -473 389 0
1 471 398 0
1 -471 382 0
1 471 -399 0
1 -471 393 0
1 471 381 0
1 372 249 0
1 372 -482 0
1 372 381 0
1 372 -472 0
1 -483 481 0
1 -483 484 0
1 483 474 0
1 483 389 0
1 483 -382 0
1 -483 -251 0
1 483 472 0
1 387 -473 0
1 387 -375 0
1 -387 -399 0
1 387 380 0
1 387 -388 0
1 399 383 0
1 399 -384 0
1 399 -293 0
1 -399 264 0
1 -398 -473 0
1 -398 -471 0
1 -398 -383 0
1 -404 479 0
1 404 -275 0
1 -404 397 0
1 -404 482 0
1 -404 -383 0
1 -404 380 0
1 -479 -394 0
1 -479 -395 0
1 -479 -399 0
1 -380 394 0
1 -380 479 0
1 380 395 0
1 -380 -404 0
1 -478 398 0
1 -478 -387 0
1 -478 -485 0
1 478 404 0
1 383 -486 0
1 383 481 0
1 383 389 0
1 -394 -391 0
1 394 -405 0
1 -394 -289 0
1 -394 479 0
1 -394 275 0
1 394 380 0
1 394 -390 0
1 394 487 0
1 -395 488 0
1 -395 -406 0
1 395 386 0
1 -395 380 0
1 -489 407 0
1 -489 490 0
1 490 289 0
1 490 488 0
1 490 400 0
1 -488 395 0
1 491 -404 0
1 390 489 0
1 390 491 0
1 390 -490 0
1 -390 -395 0
1 -427 492 0
1 -427 -493 0
1 -419 494 0
1 -419 314 0
1 -419 493 0
1 419 317 0
1 419 429 0
1 -426 420 0
1 426 345 0
1 -426 -493 0
1 -426 495 0
1 426 -496 0
1 430 -497 0
1 -430 -426 0
1 -430 492 0
1 430 495 0
1 -494 498 0
1 494 493 0
1 -493 -498 0
1 -493 -494 0
1 -493 -425 0
1 -493 435 0
1 -493 -308 0
1 493 -419 0
1 497 499 0
1 -497 426 0
1 492 -497 0
1 492 426 0
1 492 412 0
1 492 419 0
1 -425 421 0
1 425 -493 0
1 -425 496 0
1 436 494 0
1 -436 -425 0
1 436 -500 0
1 436 422 0
1 436 -429 0
1 -498 500 0
1 498 435 0
1 -498 -496 0
1 435 498 0
1 -435 494 0
1 435 500 0
1 435 -428 0
1 -435 439 0
1 500 -426 0
1 -500 -501 0
1 -500 502 0
1 -500 -444 0
1 -496 -498 0
1 496 500 0
1 496 435 0
1 -496 430 0
1 -420 503 0
1 420 426 0
1 -420 -430 0
1 420 -504 0
1 -495 -425 0
1 495 -426 0
1 495 -435 0
1 495 -430 0
1 -495 -504 0
1 505 431 0
1 505 496 0
1 505 -432 0
1 433 500 0
1 433 428 0
1 -433 506 0
1 -433 431 0
1 -433 432 0
1 -445 362 0
1 444 500 0
1 -444 428 0
1 444 -506 0
1 444 -447 0
1 444 507 0
1 -444 508 0
1 -444 445 0
1 -506 -505 0
1 506 -422 0
1 506 -443 0
1 506 -444 0
1 506 -433 0
1 -506 435 0
1 506 508 0
1 506 -509 0
1 508 -498 0
1 -508 -433 0
1 428 505 0
1 428 502 0
1 -428 -433 0
1 428 -504 0
1 510 498 0
1 -510 444 0
1 510 511 0
1 510 -433 0
1 510 512 0
1 -510 504 0
1 -510 445 0
1 -442 -437 0
1 -442 443 0
1 -442 361 0
1 -443 506 0
1 443 442 0
1 509 506 0
1 509 -513 0
1 -509 -441 0
1 509 514 0
1 -509 -515 0
1 516 -437 0
1 516 -441 0
1 -516 515 0
1 517 450 0
1 517 443 0
1 517 -444 0
1 -517 518 0
1 515 519 0
1 -515 450 0
1 515 -518 0
1 515 -445 0
1 515 -520 0
1 -507 443 0
1 -507 -424 0
1 -507 444 0
1 507 518 0
1 514 -519 0
1 -514 516 0
1 -514 -507 0
1 514 -518 0
1 -449 521 0
1 -449 450 0
1 449 -517 0
1 449 -513 0
1 449 -365 0
1 449 -446 0
1 450 -521 0
1 450 -522 0
1 450 355 0
1 450 -517 0
1 450 -513 0
1 462 -513 0
1 462 451 0
1 -462 -523 0
1 462 -515 0
1 -458 -452 0
1 458 -513 0
1 458 -448 0
1 441 -524 0
1 441 525 0
1 -441 -516 0
1 -441 -526 0
1 441 336 0
1 521 338 0
1 521 525 0
1 -521 -516 0
1 -521 470 0
1 -513 458 0
1 -513 450 0
1 513 -516 0
1 527 458 0
1 -527 528 0
1 527 -462 0
1 -527 449 0
1 -459 525 0
1 459 -352 0
1 459 -446 0
1 -459 -453 0
1 525 -455 0
1 525 -448 0
1 525 446 0
1 -470 -452 0
1 -470 529 0
1 -470 -530 0
1 470 -531 0
1 -470 455 0
1 -470 -382 0
1 -524 441 0
1 -524 -451 0
1 -448 -524 0
1 448 525 0
1 448 -477 0
1 -448 -462 0
1 -448 440 0
1 -448 532 0
1 529 -533 0
1 -529 534 0
1 529 -477 0
1 529 535 0
1 529 480 0
1 -529 464 0
1 451 524 0
1 451 452 0
1 -451 -536 0
1 -451 -462 0
1 -451 -535 0
1 -451 -537 0
1 -452 -525 0
1 -452 -462 0
1 452 -537 0
1 -477 530 0
1 477 -456 0
1 -477 526 0
1 477 -448 0
1 -477 -538 0
1 -464 448 0
1 -464 457 0
1 534 -539 0
1 -534 529 0
1 534 530 0
1 -534 536 0
1 -534 -466 0
1 534 480 0
1 -534 457 0
1 -534 540 0
1 -480 -366 0
1 -480 466 0
1 -480 -468 0
1 480 -448 0
1 480 -457 0
1 480 540 0
1 -457 -534 0
1 457 -477 0
1 -457 470 0
1 457 541 0
1 -457 -464 0
1 531 -542 0
1 531 484 0
1 531 -470 0
1 -531 -543 0
1 531 -482 0
1 531 464 0
1 -538 -524 0
1 -538 -542 0
1 -538 544 0
1 -538 534 0
1 538 470 0
1 -538 -480 0
1 530 524 0
1 530 542 0
1 530 -545 0
1 -530 -544 0
1 530 538 0
1 530 -543 0
1 530 480 0
1 -474 -539 0
1 -474 483 0
1 474 -541 0
1 541 539 0
1 -541 463 0
1 -541 531 0
1 541 468 0
1 -541 399 0
1 -541 457 0
1 484 -476 0
1 484 457 0
1 482 -372 0
1 482 531 0
1 -482 -466 0
1 482 457 0
1 482 -540 0
1 -539 486 0
1 539 465 0
1 539 -546 0
1 539 485 0
1 539 -482 0
1 539 461 0
1 465 484 0
1 465 -534 0
1 465 482 0
1 465 541 0
1 540 -542 0
1 -540 -547 0
1 540 482 0
1 -540 -460 0
1 466 548 0
1 466 -547 0
1 -466 -541 0
1 -466 540 0
1 -481 549 0
1 481 372 0
1 481 -542 0
1 -481 473 0
1 -481 478 0
1 -481 550 0
1 -481 -483 0
1 485 -372 0
1 -485 473 0
1 485 -550 0
1 -485 -543 0
1 -485 -383 0
1 -486 539 0
1 486 478 0
1 -486 -476 0
1 546 551 0
1 -546 478 0
1 546 -465 0
1 -546 -490 0
1 -546 547 0
1 -551 486 0
1 551 546 0
1 -550 484 0
1 550 546 0
1 550 485 0
1 504 502 0
1 504 -496 0
1 502 500 0
1 -502 -552 0
1 -553 -554 0
1 -553 552 0
1 554 555 0
1 -554 -556 0
1 -557 -558 0
1 557 553 0
1 557 -504 0
1 555 558 0
1 -555 -522 0
1 555 493 0
1 -555 -559 0
1 555 523 0
1 -555 512 0
1 -499 -552 0
1 499 553 0
1 -552 499 0
1 552 554 0
1 -552 -560 0
1 -552 553 0
1 512 -503 0
1 -512 -522 0
1 512 -501 0
1 512 507 0
1 -512 449 0
1 -522 -503 0
1 -522 -428 0
1 -522 561 0
1 -523 -501 0
1 -523 -561 0
1 558 458 0
1 -558 -501 0
1 -558 561 0
1 -558 -523 0
1 501 -500 0
1 501 -528 0
1 501 -518 0
1 -501 562 0
1 -556 558 0
1 556 554 0
1 556 -512 0
1 -556 -553 0
1 -556 -562 0
1 503 558 0
1 -503 522 0
1 -503 -554 0
1 503 -561 0
1 503 -523 0
1 -503 512 0
1 -503 553 0
1 -561 -554 0
1 561 495 0
1 -561 523 0
1 -518 -527 0
1 -518 -519 0
1 -518 -563 0
1 518 517 0
1 518 -513 0
1 518 556 0
1 518 511 0
1 -518 515 0
1 -519 527 0
1 519 -564 0
1 519 507 0
1 519 -556 0
1 519 565 0
1 -519 -514 0
1 -528 470 0
1 -528 -513 0
1 566 -563 0
1 566 -567 0
1 566 -568 0
1 -566 511 0
1 564 536 0
1 -564 -526 0
1 -564 -537 0
1 -565 519 0
1 565 -558 0
1 -565 569 0
1 -565 -523 0
1 565 -570 0
1 565 571 0
1 563 572 0
1 -563 -562 0
1 511 -566 0
1 -511 -563 0
1 511 -569 0
1 511 -572 0
1 -511 573 0
1 511 -528 0
1 511 -562 0
1 -526 477 0
1 -526 -567 0
1 -526 -451 0
1 -526 574 0
1 -526 -537 0
1 -537 527 0
1 537 -521 0
1 537 -452 0
1 -537 -574 0
1 537 526 0
1 -537 567 0
1 -537 451 0
1 537 -464 0
1 -536 575 0
1 -536 576 0
1 536 567 0
1 536 577 0
1 536 578 0
1 536 565 0
1 -536 571 0
1 571 -452 0
1 -571 -574 0
1 571 -564 0
1 -571 -536 0
1 571 -567 0
1 -571 -568 0
1 -571 565 0
1 568 545 0
1 568 -526 0
1 520 579 0
1 520 -580 0
1 -520 -581 0
1 567 -569 0
1 -567 -526 0
1 -567 528 0
1 574 569 0
1 -574 536 0
1 574 580 0
1 -574 -571 0
1 -544 575 0
1 544 -577 0
1 535 576 0
1 535 452 0
1 -535 529 0
1 -535 -451 0
1 -545 575 0
1 545 -533 0
1 -545 -582 0
1 545 -581 0
1 -545 520 0
1 581 -576 0
1 581 583 0
1 -581 -568 0
1 581 -577 0
1 581 482 0
1 -581 584 0
1 -578 -576 0
1 578 -542 0
1 -578 -544 0
1 -578 536 0
1 -578 -543 0
1 -576 -542 0
1 -576 536 0
1 576 -535 0
1 577 585 0
1 -577 536 0
1 577 -580 0
1 575 527 0
1 575 544 0
1 575 536 0
1 -575 577 0
1 -575 535 0
1 542 -466 0
1 542 -538 0
1 -542 540 0
1 543 576 0
1 543 531 0
1 543 485 0
1 -543 -538 0
1 -548 585 0
1 547 -533 0
1 -547 578 0
1 -547 -586 0
1 547 540 0
1 532 -542 0
1 -532 547 0
1 -532 -448 0
1 533 532 0
1 583 545 0
1 -583 -543 0
1 573 587 0
1 -573 -563 0
1 -573 562 0
1 -562 -573 0
1 562 561 0
1 -562 -511 0
1 562 537 0
1 572 -588 0
1 -572 560 0
1 -589 587 0
1 589 -560 0
1 -589 590 0
1 589 -511 0
1 587 557 0
1 587 572 0
1 -587 -559 0
1 587 -570 0
1 559 -569 0
1 -559 -572 0
1 -559 573 0
1 -559 584 0
1 559 -570 0
1 591 -499 0
1 -591 -572 0
1 -560 -591 0
1 -560 552 0
1 -560 589 0
1 560 -562 0
1 -569 -587 0
1 569 -544 0
1 -569 590 0
1 -569 511 0
1 569 -570 0
1 570 -563 0
1 570 -574 0
1 592 -593 0
1 592 567 0
1 -592 -594 0
1 592 595 0
1 592 -574 0
1 584 588 0
1 584 593 0
1 584 -592 0
1 -584 -596 0
1 -584 559 0
1 584 590 0
1 -593 -592 0
1 593 -594 0
1 -593 -584 0
1 593 -570 0
1 594 585 0
1 -594 -572 0
1 -594 586 0
1 594 -584 0
1 594 -570 0
1 -588 572 0
1 -588 570 0
1 -590 -588 0
1 590 592 0
1 -590 -569 0
1 590 572 0
1 -590 561 0
1 -590 -570 0
1 -579 -575 0
1 579 594 0
1 -579 568 0
1 579 -574 0
1 -580 -567 0
1 580 -543 0
1 580 594 0
1 -580 597 0
1 -580 -520 0
1 585 -575 0
1 585 596 0
1 -585 577 0
1 585 594 0
1 586 -585 0
1 -586 -598 0
1 586 -596 0
1 586 -577 0
1 -586 -594 0
1 586 595 0
1 -596 586 0
1 596 -580 0
1 596 -584 0
1 -596 -595 0
1 -595 596 0
1 598 579 0
1 598 592 0
1 598 584 0
1 597 -586 0
1 597 580 0
1 597 584 0
